(declare-const __cost Int)
(declare-fun pow (Real Real) Real)
(declare-const param0 Int)
(assert (exists ((|__cost'?1| Int) (|r'?2| Int) (K?3 Int))
         (and (<= (+ (- param0) 1) 0)
                (or (not (<= (- K?3) 0)) (= (+ (- (pow 2 K?3)) |r'?2|) 0))
                (or (not (<= (- K?3) 0)) (= (+ |__cost'?1| (- K?3)) 0))
                (or (not (<= (- K?3) 0))
                      (<= (+ |r'?2| K?3 (- (* K?3 param0)) -1) 0))
                (or (not (<= (- K?3) 0)) (<= (+ (- |r'?2|) K?3 1) 0))
                (or (and (= K?3 0) (= (+ (- |r'?2|) 1) 0)
                           (= (- |__cost'?1|) 0))
                      (and (<= (+ (- K?3) 1) 0) (<= (+ (- param0) 2) 0)
                             (<= (+ |r'?2| (* -2 param0) 2) 0)
                             (<= (+ (- |__cost'?1|) 1) 0)
                             (<= (+ (- |r'?2|) 2) 0))) (<= (- K?3) -1)
                (<= (- |__cost'?1|) 0) (< (- |r'?2|) 0) (< (- param0) 0)
                (<= (+ (- |r'?2|) param0) 0) (= (+ __cost (- |__cost'?1|)) 0))))
(check-sat)
